%SETS
JOBS = 1..13;
MACHINES = 1..14;
SPEED    = 2;

time = array3d(JOBS,MACHINES,1..SPEED,time = [26, 9, 119, 41, 44, 15, 13, 4, 54, 18, 44, 15, 1, 1, 32, 11, 41, 14, 34, 11, 31, 11, 20, 6, 3, 1, 81, 28, 13, 4] // array too long to display, dimensions: (364)
);
energy = array3d(JOBS,MACHINES,1..SPEED,energy = [77, 91, 30, 66, 64, 86, 87, 96, 58, 83, 64, 86, 99, 99, 72, 89, 66, 86, 71, 89, 73, 89, 81, 94, 97, 99, 44, 75, 87, 96] // array too long to display, dimensions: (364)
);
precedence = array2d(JOBS,MACHINES,precedence = [11, 2, 13, 5, 4, 10, 0, 12, 8, 7, 9, 1, 3, 6, 3, 1... ] // array too long to display, dimensions: (182)
);